Cu2 S4
1.0
        3.6502900124         0.0000000000         0.0000000000
        0.0000000000         4.7229847908         0.0000000000
        0.0000000000         0.0000000000         5.8256249428
   Cu    S
    2    4
Direct
     0.500000000         0.500000000         0.500000000
     0.000000000         0.000000000         0.000000000
     0.500000000         0.326743990         0.895650029
     0.000000000         0.173255995         0.395649999
     0.000000000         0.826744020         0.604349971
     0.500000000         0.673255980         0.104350001
