SYSTEM = ELF

EDIFFG = -0.05
GGA = PE
ISYM = 0
ISPIN= 2
ISTART = 0
ICHARG = 2 
INIWAV = 1
ISMEAR = 0
SIGMA = 0.1
IBRION = 2
EDIFF = 1E-5
ISIF = 3
NSW = 500
NELM = 500
NELMIN = 4
ISPIN= 2
ALGO = Very_Fast
ENCUT = 400
LREAL = A
PREC = Normal 
LWAVE = .FALSE.
LCHARG = .FALSE.
POTIM = 0.3
NELMDL = -5
LELF   =  .TRUE.